decision_x1=[0,4];
decision_x2=[0,4];
decision_x3=[0,4];
decision_x4=[0,4];
random_y1=[0,4];
random_y2=[0,4];
constraint_x2_x1=[
0,1,6.2|
0,2,2.9|
0,3,4.5|
0,4,8|
1,0,8.5|
1,2,6.5|
1,3,9.3|
1,4,7.2|
2,0,8.1|
2,1,4.5|
2,3,6.7|
2,4,3.8|
3,0,6.8|
3,1,0.89|
3,2,5.3|
3,4,4.5|
4,0,4|
4,1,9.3|
4,2,6.6|
4,3,4.2|
];
constraint_x3_x2=[
0,1,9.6|
0,2,3.4|
0,3,6.6|
0,4,6.2|
1,0,0.077|
1,2,2.5|
1,3,8|
1,4,3.4|
2,0,1.2|
2,1,6.8|
2,3,0.9|
2,4,8|
3,0,0.3|
3,1,0.17|
3,2,5.8|
3,4,9.3|
4,0,0.23|
4,1,7.4|
4,2,9.3|
4,3,5.2|
];
constraint_x4_x3=[
0,1,3.1|
0,2,4.1|
0,3,1.8|
0,4,0.96|
1,0,5.7|
1,2,8|
1,3,4.3|
1,4,8.5|
2,0,2.2|
2,1,7.9|
2,3,8.9|
2,4,4.8|
3,0,2.5|
3,1,0.2|
3,2,8.9|
3,4,8.1|
4,0,8|
4,1,9.8|
4,2,0.46|
4,3,6.3|
];
constraint_x1_y1=[
0,0,3.2|
0,1,3.1|
0,2,4.8|
0,3,4.5|
0,4,3.1|
1,0,9.9|
1,1,0.42|
1,2,5.5|
1,3,0.91|
1,4,1.8|
2,0,4.4|
2,1,9.9|
2,2,3.3|
2,3,3|
2,4,5.8|
3,0,7.7|
3,1,4.9|
3,2,8.4|
3,3,9.5|
3,4,2.8|
4,0,7.7|
4,1,2.6|
4,2,8|
4,3,9.9|
4,4,6.8|
];
constraint_x2_y2=[
0,0,1.8|
0,1,6.3|
0,2,8.4|
0,3,9|
0,4,2.8|
1,0,4.1|
1,1,3.4|
1,2,8.5|
1,3,7.6|
1,4,6.5|
2,0,4.4|
2,1,2.6|
2,2,7.7|
2,3,3|
2,4,1.7|
3,0,0.97|
3,1,0.58|
3,2,1.7|
3,3,7.7|
3,4,7.8|
4,0,7.8|
4,1,4.2|
4,2,6.8|
4,3,0.012|
4,4,9.7|
];
initial_distribution_y1=[0.31,0.29,0.046,0.18,0.17];
initial_distribution_y2=[0.23,0.17,0.037,0.28,0.28];
transition_y1=[
0.21,0.029,0.11,0.52,0.13|
0.27,0.22,0.094,0.25,0.16|
0.061,0.0067,0.29,0.16,0.48|
0.34,0.23,0.18,0.21,0.041|
0.21,0.068,0.34,0.038,0.34|
];
transition_y2=[
0.022,0.36,0.22,0.12,0.28|
0.044,0.25,0.075,0.39,0.25|
0.1,0.26,0.068,0.13,0.44|
0.13,0.32,0.064,0.16,0.33|
0.22,0.11,0.24,0.11,0.32|
];
